p cnf 28 74
a 2 7 0
e 1 3 4 5 6 8 9 10 11 12 13 14 15 16 17 18 19 20 21 22 23 24 25 26 27 28 0
2 -1 0
2 -1 0
1 -2 0
5 -3 0
5 -4 0
3 4 -5 0
-6 -1 0
-6 -5 0
1 5 6 0
1 4 -7 0
-1 -4 -7 0
1 -4 7 0
-1 4 7 0
-6 7 -8 0
6 -7 -8 0
-6 -7 8 0
6 7 8 0
-9 -5 0
-9 -8 0
5 8 9 0
-10 2 0
-10 9 0
-2 -9 10 0
-11 5 -12 0
11 -5 -12 0
-11 -5 12 0
11 5 12 0
-13 -10 0
-13 -12 0
10 12 13 0
-3 14 -15 0
3 -14 -15 0
-3 -14 15 0
3 14 15 0
-15 -16 -17 0
15 16 -17 0
-15 16 17 0
15 -16 17 0
-18 4 0
-18 -17 0
-4 17 18 0
21 -19 0
21 20 0
19 -20 -21 0
-22 -21 0
-22 -16 0
21 16 22 0
23 18 0
23 22 0
-18 -22 -23 0
20 -1 -24 0
-20 1 -24 0
20 1 24 0
-20 -1 24 0
-25 1 0
-25 -24 0
-1 24 25 0
-26 5 0
-26 -25 0
-5 25 26 0
27 23 0
27 26 0
-23 -26 -27 0
28 13 0
28 27 0
-13 -27 -28 0
28 -14 10 7 -18 0
10 -25 -1 19 0
13 -21 2 -10 -22 0
9 -17 -7 -21 28 18 0
22 28 13 -24 0
15 -23 -4 3 8 0
14 -17 -24 26 3 11 0
28 0
